% demand
num_movements = 29;
loading_factor = [950, 1700, 1600, 1900, 1150, 900, 1500, 800, 1350, 1550, 2000, 950, 1550, 850, 1800, 1050, 1950, 1100, 1600, 1750, 850, 1450, 1600, 950, 1450, 800, 1950, 1050, 900];
pickup_time = [0, 0, 0, 0, 1, 1, 1, 1, 1, 1, 2, 3, 3, 4, 5, 5, 5, 5, 5, 5, 6, 6, 6, 6, 6, 6, 6, 6, 6];
delivery_time = [1, 1, 1, 5, 3, 6, 4, 3, 5, 2, 4, 5, 5, 6, 6, 6, 6, 6, 6, 6, 7, 8, 8, 7, 8, 8, 8, 8, 8];

% transporter definition
total_capacity = 11000;
num_decks = 4;
capacity = [3000, 3000, 1000, 4000];

% ways out of decks
num_ways_out = 2;
paths_out = array3d(decks, ways_out, decks, [
% ways out of deck d1
2, 4, 0, 0, 3, 4, 0, 0, 

% ways out of deck d2
4, 0, 0, 0, 0, 0, 0, 0,	

% ways out of deck d3
4, 0, 0, 0, 0, 0, 0, 0,	

% ways out of deck d4
0, 0, 0, 0,	0, 0, 0, 0,	

]);

